************************************************************************
file with basedata            : md368_.bas
initial value random generator: 1653838836
************************************************************************
projects                      :  1
jobs (incl. supersource/sink ):  22
horizon                       :  145
RESOURCES
  - renewable                 :  2   R
  - nonrenewable              :  2   N
  - doubly constrained        :  0   D
************************************************************************
PROJECT INFORMATION:
pronr.  #jobs rel.date duedate tardcost  MPM-Time
    1     20      0       16       10       16
************************************************************************
PRECEDENCE RELATIONS:
jobnr.    #modes  #successors   successors
   1        1          3           2   3   4
   2        3          3           5  15  18
   3        3          3           7   9  20
   4        3          3           6  10  11
   5        3          2           7   8
   6        3          2          18  19
   7        3          1          14
   8        3          3          12  14  20
   9        3          3          11  14  16
  10        3          3          17  18  20
  11        3          2          13  21
  12        3          2          13  16
  13        3          1          17
  14        3          1          19
  15        3          2          16  17
  16        3          1          21
  17        3          1          19
  18        3          1          21
  19        3          1          22
  20        3          1          22
  21        3          1          22
  22        1          0        
************************************************************************
REQUESTS/DURATIONS:
jobnr. mode duration  R 1  R 2  N 1  N 2
------------------------------------------------------------------------
  1      1     0       0    0    0    0
  2      1     1       7    7    6    3
         2     2       1    6    5    2
         3     2       3    3    5    1
  3      1     1       5    7   10   10
         2     2       4    5    7   10
         3     8       1    3    7   10
  4      1     2       5    7    9    4
         2     2       5    9    6    4
         3     4       4    7    5    3
  5      1     1       5    7    8    5
         2     3       4    6    4    4
         3     3       4    7    4    3
  6      1     2       5    6    5   10
         2     3       4    3    4    7
         3     5       4    2    2    5
  7      1     2       5    7    7   10
         2     5       3    6    6    9
         3     6       2    6    6    7
  8      1     2       8    3    4    9
         2     6       6    3    4    8
         3     8       6    2    3    8
  9      1     5       7    8    7   10
         2     7       4    7    6    6
         3     8       3    5    4    4
 10      1     1       8    5    4    5
         2     7       6    4    4    4
         3    10       6    4    4    3
 11      1     1       8    9    2    4
         2     3       7    9    2    3
         3     4       5    8    1    3
 12      1     2       3    5    3    7
         2     8       2    4    3    7
         3    10       2    4    3    3
 13      1     2       8    4    7    8
         2     7       8    4    5    7
         3     8       7    1    5    3
 14      1     1       6    8    6    6
         2     5       5    5    5    4
         3     6       4    5    5    4
 15      1     3       5    8    6    6
         2    10       3    2    2    6
         3    10       4    2    4    4
 16      1     1       2    9    7    7
         2     1       2    8    8    7
         3     8       2    8    7    7
 17      1     3       4    8    7    4
         2     8       4    8    6    4
         3    10       3    7    2    4
 18      1     1       6    8    4   10
         2     6       6    6    3    9
         3    10       2    6    3    9
 19      1     4       6    2    8    3
         2     6       6    2    4    2
         3     6       5    2    7    1
 20      1     1       6    9    5    2
         2     3       6    4    5    2
         3     9       6    4    2    1
 21      1     5       6   10    5    8
         2     8       5    9    5    7
         3    10       5    8    3    7
 22      1     0       0    0    0    0
************************************************************************
RESOURCEAVAILABILITIES:
  R 1  R 2  N 1  N 2
   38   37   99  111
************************************************************************
MAXIMAL LAGS:
from  to  type  delay
    1   22   ES      0
    1    2   ES      0
    2   22   ES      0
    1    3   ES      0
    3   22   ES      0
    1    4   ES      0
    4   22   ES      0
    1    5   ES      0
    5   22   ES      0
    1    6   ES      0
    6   22   ES      0
    1    7   ES      0
    7   22   ES      0
    1    8   ES      0
    8   22   ES      0
    1    9   ES      0
    9   22   ES      0
    1   10   ES      0
   10   22   ES      0
    1   11   ES      0
   11   22   ES      0
    1   12   ES      0
   12   22   ES      0
    1   13   ES      0
   13   22   ES      0
    1   14   ES      0
   14   22   ES      0
    1   15   ES      0
   15   22   ES      0
    1   16   ES      0
   16   22   ES      0
    1   17   ES      0
   17   22   ES      0
    1   18   ES      0
   18   22   ES      0
    1   19   ES      0
   19   22   ES      0
    1   20   ES      0
   20   22   ES      0
    1   21   ES      0
   21   22   ES      0
    1   22   ES      0
    2    5   SS     -6
    2    5   SE      3
    2    5   ES    -10
    2    5   EE     -1
    2   15   SS     -1
    2   15   SE      3
    2   15   ES     -5
    2   15   EE     -9
    2   18   SS    -12
    2   18   SE     -1
    2   18   ES     -7
    2   18   EE    -12
    3    7   SS      5
    3    7   SE      6
    3    7   ES      5
    3    7   EE     -6
    3    9   SS    -10
    3    9   SE      5
    3    9   ES      2
    3    9   EE     -5
    3   20   SS    -12
    3   20   SE      9
    3   20   ES      6
    3   20   EE     -1
    4    6   SS    -11
    4    6   SE      3
    4    6   ES      7
    4    6   EE     -6
    4   10   SS     -5
    4   10   SE      2
    4   10   ES      2
    4   10   EE     -5
    4   11   SS     -9
    4   11   SE     -8
    4   11   ES      7
    4   11   EE      3
    5    7   SS     -6
    5    7   SE     -4
    5    7   ES    -10
    5    7   EE     11
    5    8   SS     -3
    5    8   SE      4
    5    8   ES     -2
    5    8   EE    -11
    6   18   SS     12
    6   18   SE     -7
    6   18   ES      9
    6   18   EE     10
    6   19   SS      2
    6   19   SE      9
    6   19   ES     -1
    6   19   EE      7
    7   14   SS      8
    7   14   SE     10
    7   14   ES    -12
    7   14   EE      4
    8   12   SS     -8
    8   12   SE      1
    8   12   ES      5
    8   12   EE     10
    8   14   SS    -12
    8   14   SE    -12
    8   14   ES      7
    8   14   EE    -11
    8   20   SS      3
    8   20   SE     -8
    8   20   ES     -7
    8   20   EE    -12
    9   11   SS      5
    9   11   SE      8
    9   11   ES      8
    9   11   EE      3
    9   14   SS    -10
    9   14   SE     -7
    9   14   ES     12
    9   14   EE     -9
    9   16   SS      4
    9   16   SE      6
    9   16   ES     12
    9   16   EE     -4
   10   17   SS     -1
   10   17   SE     -7
   10   17   ES     -5
   10   17   EE      7
   10   18   SS      8
   10   18   SE     10
   10   18   ES     -2
   10   18   EE      6
   10   20   SS      1
   10   20   SE     12
   10   20   ES    -11
   10   20   EE     -8
   11   13   SS     -5
   11   13   SE     -6
   11   13   ES    -10
   11   13   EE     -2
   11   21   SS      7
   11   21   SE     12
   11   21   ES      7
   11   21   EE      4
   12   13   SS     11
   12   13   SE      2
   12   13   ES     -1
   12   13   EE     -9
   12   16   SS      2
   12   16   SE     -1
   12   16   ES      2
   12   16   EE      7
   13   17   SS    -12
   13   17   SE     -6
   13   17   ES     -7
   13   17   EE     -6
   14   19   SS    -12
   14   19   SE      5
   14   19   ES      4
   14   19   EE      5
   15   16   SS    -11
   15   16   SE      1
   15   16   ES    -12
   15   16   EE      7
   15   17   SS     -3
   15   17   SE    -10
   15   17   ES      2
   15   17   EE     -2
   16   21   SS    -12
   16   21   SE     -7
   16   21   ES     11
   16   21   EE     -4
   17   19   SS     -9
   17   19   SE     -5
   17   19   ES    -12
   17   19   EE    -11
   18   21   SS      2
   18   21   SE      4
   18   21   ES      8
   18   21   EE      5
************************************************************************
